\ LP format - for model browsing. Use MPS format to capture full model detail.
Minimize
  2.68771e-06 X[465610,501121,2] + 2.58553e-06 X[465610,501121,1]
   + 5.58833e-06 X[465594,465610,1] + 1.30388e-05 X[465486,465594,1]
   + 7.65257e-06 X[465943,465594,1] + 1.08787e-05 X[465544,465594,1]
   + 0 O[465486] + 0 O[465544] + 0 O[465943] + 0 O[500877] + 0 O[500878]
   + 0 O[500879] + 0 O[500880] + 0 O[500881] + 0 O[500882] + 0 O[500883]
   + 0 O[500884] + 0 O[500885] + 0 O[500886] + 0 O[500887] + 0 O[500888]
   + 0 O[500889] + 0 O[500890] + 0 O[501395] + 0 O[501396] + 0 O[501397]
   + 0 O[501398] + 0 O[501399] + 0 O[501400] + 0 O[501401] + 0 O[501402]
   + 0 O[501403] + 0 O[501404] + 0 O[501405] + 0 O[501406] + 0 O[501407]
   + 0 O[501408] + 0 O[501409] + 0 O[501410] + 0 O[501411] + 0 O[501412]
   + 0 O[500891] + 0 O[500892] + 0 O[500893] + 0 O[500894] + 0 O[500895]
   + 0 O[500896] + 0 O[500897] + 0 O[500898] + 0 O[500899] + 0 O[500900]
   + 0 O[500901] + 0 O[500902] + 0 O[500903] + 0 O[500904] + 0 O[500905]
   + 0 O[500906] + 0 O[500907] + 0 O[500908] + 0 O[500909] + 0 O[500910]
   + 0 O[500911] + 0 O[500912] + 0 O[500913] + 0 O[500914] + 0 O[500915]
   + 0 O[500916] + 0 O[500917] + 0 O[500918] + 0 O[500919] + 0 O[500920]
   + 0 O[500921] + 0 O[500922] + 0 O[500923] + 0 O[500924] + 0 O[500925]
   + 0 O[500926] + 0 O[500927] + 0 O[500928] + 0 O[500929] + 0 O[500930]
   + 0 O[500931] + 0 O[500932] + 0 O[500933] + 0 O[500934] + 0 O[500935]
   + 0 O[500936] + 0 O[500937] + 0 O[500938] + 0 O[500939] + 0 O[500940]
   + 0 O[500941] + 0 O[500942] + 0 O[500943] + 0 O[500944] + 0 O[500945]
   + 0 O[500946] + 0 O[500947] + 0 O[500948] + 0 O[500949] + 0 O[500950]
   + 0 O[500951] + 0 O[500952] + 0 O[500953] + 0 O[500954] + 0 O[500955]
   + 0 O[500956] + 0 O[500957] + 0 O[500958] + 0 O[500959] + 0 O[500960]
   + 0 O[500961] + 0 O[500962] + 0 O[500963] + 0 O[500964] + 0 O[500965]
   + 0 O[500966] + 0 O[500967] + 0 O[500968] + 0 O[500969] + 0 O[500970]
   + 0 O[500971] + 0 O[500972] + 0 O[500973] + 0 O[500974] + 0 O[500975]
   + 0 O[500976] + 0 O[500977] + 0 O[500978] + 0 O[500979] + 0 O[500980]
   + 0 O[500981] + 0 O[500982] + 0 O[500983] + 0 O[500984] + 0 O[500985]
   + 0 O[500986] + 0 O[500987] + 0 O[500988] + 0 O[500989] + 0 O[500990]
   + 0 O[500991] + 0 O[500992] + 0 O[500993] + 0 O[500994] + 0 O[500995]
   + 0 O[500996] + 0 O[500997] + 0 O[500998] + 0 O[500999] + 0 O[501000]
   + 0 O[501001] + 0 O[501002] + 0 O[501003] + 0 O[501004] + 0 O[501005]
   + 0 O[501006] + 0 O[501007] + 0 O[501008] + 0 O[501009] + 0 O[501010]
   + 0 O[501011] + 0 O[501012] + 0 O[501013] + 0 O[501014] + 0 O[501015]
   + 0 O[501016] + 0 O[501017] + 0 O[501018] + 0 O[501019] + 0 O[501020]
   + 0 O[501021] + 0 O[501022] + 0 O[501023] + 0 O[501024] + 0 O[501025]
   + 0 O[501026] + 0 O[501027] + 0 O[501028] + 0 O[501029] + 0 O[501030]
   + 0 O[501031] + 0 O[501032] + 0 O[501033] + 0 O[501034] + 0 O[501035]
   + 0 O[501036] + 0 O[501037] + 0 O[501038] + 0 O[501039] + 0 O[501040]
   + 0 O[501041] + 0 O[501042] + 0 O[501043] + 0 O[501044] + 0 O[501045]
   + 0 O[501046] + 0 O[501047] + 0 O[501048] + 0 O[501049] + 0 O[501050]
   + 0 O[501051] + 0 O[501052] + 0 O[501053] + 0 O[501054] + 0 O[501055]
   + 0 O[501056] + 0 O[501057] + 0 O[501058] + 0 O[501059] + 0 O[501060]
   + 0 O[501061] + 0 O[501062] + 0 O[501063] + 0 O[501064] + 0 O[501065]
   + 0 O[501066] + 0 O[501067] + 0 O[501068] + 0 O[501069] + 0 O[501070]
   + 0 O[501071] + 0 O[501072] + 0 O[501073] + 0 O[501074] + 0 O[501075]
   + 0 O[501076] + 0 O[501077] + 0 O[501078] + 0 O[501079] + 0 O[501080]
   + 0 O[501081] + 0 O[501082] + 0 O[501083] + 0 O[501084] + 0 O[501085]
   + 0 O[501086] + 0 O[501087] + 0 O[501088] + 0 O[501089] + 0 O[501090]
   + 0 O[501091] + 0 O[501092] + 0 O[501093] + 0 O[501094] + 0 O[501095]
   + 0 O[501096] + 0 O[501097] + 0 O[501098] + 0 O[501099] + 0 O[501100]
   + 0 O[501101] + 0 O[501102] + 0 O[501103] + 0 O[501104] + 0 O[501105]
   + 0 O[501106] + 0 O[501107] + 0 O[501108] + 0 O[501109] + 0 O[501110]
   + 0 O[501111] + 0 O[501112] + 0 O[501113] + 0 O[501114] + 0 O[501115]
   + 0 O[501116] + 0 O[501117] + 0 O[501118] + 0 O[501119] + 0 O[501120]
   + 0 O[501121] + 0 O[501122] + 0 O[501123] + 0 O[501124] + 0 O[501125]
   + 0 O[501126] + 0 O[501127] + 0 O[501128] + 0 O[501129] + 0 O[501130]
   + 0 O[501131] + 0 O[501132] + 0 O[501133] + 0 O[501134] + 0 O[501135]
   + 0 O[501136] + 0 O[501137] + 0 O[501138] + 0 O[501139] + 0 O[501140]
   + 0 O[501141] + 0 O[501142] + 0 O[501143] + 0 O[501144] + 0 O[501145]
   + 0 O[501146] + 0 O[501147] + 0 O[501148] + 0 O[501149] + 0 O[501150]
   + 0 O[501151] + 0 O[501152] + 0 O[501153] + 0 O[501154] + 0 O[501155]
   + 0 O[501156] + 0 O[501157] + 0 O[501158] + 0 O[501159] + 0 O[501160]
   + 0 O[501161] + 0 O[501162] + 0 O[501163] + 0 O[501164] + 0 O[501165]
   + 0 O[501166] + 0 O[501167] + 0 O[501168] + 0 O[501169] + 0 O[501170]
   + 0 O[501171] + 0 O[501172] + 0 O[501173] + 0 O[501174] + 0 O[501175]
   + 0 O[501176] + 0 O[501177] + 0 O[501178] + 0 O[501179] + 0 O[501180]
   + 0 O[501181] + 0 O[501182] + 0 O[501183] + 0 O[501184] + 0 O[501185]
   + 0 O[501186] + 0 O[501187] + 0 O[501188] + 0 O[501189] + 0 O[501190]
   + 0 O[501191] + 0 O[501192] + 0 O[501193] + 0 O[501194] + 0 O[501195]
   + 0 O[501196] + 0 O[501197] + 0 O[501198] + 0 O[501199] + 0 O[501200]
   + 0 O[501201] + 0 O[501202] + 0 O[501203] + 0 O[501204] + 0 O[501205]
   + 0 O[501206] + 0 O[501207] + 0 O[501208] + 0 O[501209] + 0 O[501210]
   + 0 O[501211] + 0 O[501212] + 0 O[501213] + 0 O[501214] + 0 O[501215]
   + 0 O[501216] + 0 O[501217] + 0 O[501218] + 0 O[501219] + 0 O[501220]
   + 0 O[501221] + 0 O[501222] + 0 O[501223] + 0 O[501224] + 0 O[501225]
   + 0 O[501226] + 0 O[501227] + 0 O[501228] + 0 O[501229] + 0 O[501230]
   + 0 O[501231] + 0 O[501232] + 0 O[501233] + 0 O[501234] + 0 O[501235]
   + 0 O[501236] + 0 O[501237] + 0 O[501238] + 0 O[501239] + 0 O[501240]
   + 0 O[501241] + 0 O[501242] + 0 O[501243] + 0 O[501244] + 0 O[501245]
   + 0 O[501246] + 0 O[501247] + 0 O[501248] + 0 O[501249] + 0 O[501250]
   + 0 O[501251] + 0 O[501252] + 0 O[501253] + 0 O[501254] + 0 O[501255]
   + 0 O[501256] + 0 O[501257] + 0 O[501258] + 0 O[501259] + 0 O[501260]
   + 0 O[501261] + 0 O[501262] + 0 O[501263] + 0 O[501264] + 0 O[501265]
   + 0 O[501266] + 0 O[501267] + 0 O[501268] + 0 O[501269] + 0 O[501270]
   + 0 O[501271] + 0 O[501272] + 0 O[501273] + 0 O[501274] + 0 O[501275]
   + 0 O[501276] + 0 O[501277] + 0 O[501278] + 0 O[501279] + 0 O[501280]
   + 0 O[501281] + 0 O[501282] + 0 O[501283] + 0 O[501284] + 0 O[501285]
   + 0 O[501286] + 0 O[501287] + 0 O[501288] + 0 O[501289] + 0 O[501290]
   + 0 O[501291] + 0 O[501292] + 0 O[501293] + 0 O[501294] + 0 O[501295]
   + 0 O[501296] + 0 O[501297] + 0 O[501298] + 0 O[501299] + 0 O[501300]
   + 0 O[501301] + 0 O[501302] + 0 O[501303] + 0 O[501304] + 0 O[501305]
   + 0 O[501306] + 0 O[501307] + 0 O[501308] + 0 O[501309] + 0 O[501310]
   + 0 O[501311] + 0 O[501312] + 0 O[501313] + 0 O[501314] + 0 O[501315]
   + 0 O[501316] + 0 O[501317] + 0 O[501318] + 0 O[501319] + 0 O[501320]
   + 0 O[501321] + 0 O[501322] + 0 O[501323] + 0 O[501324] + 0 O[501325]
   + 0 O[501326] + 0 O[501327] + 0 O[501328] + 0 O[501329] + 0 O[501330]
   + 0 O[501331] + 0 O[501332] + 0 O[501333] + 0 O[501334] + 0 O[501335]
   + 0 O[501336] + 0 O[501337] + 0 O[501338] + 0 O[501339] + 0 O[501340]
   + 0 O[501341] + 0 O[501342] + 0 O[501343] + 0 O[501344] + 0 O[501345]
   + 0 O[501346] + 0 O[501347] + 0 O[501348] + 0 O[501349] + 0 O[501350]
   + 0 O[501351] + 0 O[501352] + 0 O[501353] + 0 O[501354] + 0 O[501355]
   + 0 O[501356] + 0 O[501357] + 0 O[501358] + 0 O[501359] + 0 O[501360]
   + 0 O[501361] + 0 O[501362] + 0 O[501363] + 0 O[501364] + 0 O[501365]
   + 0 O[501366] + 0 O[501367] + 0 O[501368] + 0 O[501369] + 0 O[501370]
   + 0 O[501371] + 0 O[501372] + 0 O[501373] + 0 O[501374] + 0 O[501375]
   + 0 O[501376] + 0 O[501377] + 0 O[501378] + 0 O[501379] + 0 O[501380]
   + 0 O[501381] + 0 O[501382] + 0 O[501383] + 0 O[501384] + 0 O[501385]
   + 0 O[501386] + 0 O[501387] + 0 O[501388] + 0 O[501389] + 0 O[501390]
   + 0 O[501391] + 0 O[501392] + 0 O[501393] + 0 O[501394] + 0 O[501413]
   + 0 O[501414] + 0 O[501415] + 0 O[501416] + 0 O[501417] + 0 O[501418]
   + 0 O[501419] + 0 O[501420] + 0 O[501421] + 0 O[501422] + 0 O[501423]
   + 0 O[501424] + 0 O[501425] + 0 O[501426] + 0 O[501427] + 0 O[501428]
   + 0 O[501429] + 0 O[501430] + 0 O[501431] + 0 O[501432] + 0 O[501433]
   + 0 O[501434] + 0 O[501435] + 0 O[501436] + 0 O[501437] + 0 O[501438]
   + 0 O[501439] + 0 O[501440]
Subject To
 customer_flow[501121]: - X[465610,501121,2] - X[465610,501121,1] = -663
 non_customer_flow[465610]: X[465610,501121,2] + X[465610,501121,1]
   - X[465594,465610,1] = 0
 capacity_constraint[465610]: X[465594,465610,1] - 301589 O[465610] <= 0
 non_customer_flow[465594]: X[465594,465610,1] - X[465486,465594,1]
   - X[465943,465594,1] - X[465544,465594,1] = 0
 non_customer_flow[465594]: X[465594,465610,1] - X[465486,465594,1]
   - X[465943,465594,1] - X[465544,465594,1] = 0
 non_customer_flow[465594]: X[465594,465610,1] - X[465486,465594,1]
   - X[465943,465594,1] - X[465544,465594,1] = 0
 capacity_constraint[465594]: X[465486,465594,1] + X[465943,465594,1]
   + X[465544,465594,1] - 67395 O[465594] <= 0
 capacity_constraint[465594]: X[465486,465594,1] + X[465943,465594,1]
   + X[465544,465594,1] - 67395 O[465594] <= 0
 capacity_constraint[465594]: X[465486,465594,1] + X[465943,465594,1]
   + X[465544,465594,1] - 67395 O[465594] <= 0
 alpha_constraint[9]: - 0.00239 X[465594,465610,1] + X[465943,465594,1]
   = 0
 alpha_constraint[11]: - 0.90828 X[465594,465610,1] + X[465486,465594,1]
   = 0
 alpha_constraint[13]: - 0.08933 X[465594,465610,1] + X[465544,465594,1]
   = 0
Bounds
Binaries
 O[465610] O[465594] O[465486] O[465544] O[465943] O[500877] O[500878]
 O[500879] O[500880] O[500881] O[500882] O[500883] O[500884] O[500885]
 O[500886] O[500887] O[500888] O[500889] O[500890] O[501395] O[501396]
 O[501397] O[501398] O[501399] O[501400] O[501401] O[501402] O[501403]
 O[501404] O[501405] O[501406] O[501407] O[501408] O[501409] O[501410]
 O[501411] O[501412] O[500891] O[500892] O[500893] O[500894] O[500895]
 O[500896] O[500897] O[500898] O[500899] O[500900] O[500901] O[500902]
 O[500903] O[500904] O[500905] O[500906] O[500907] O[500908] O[500909]
 O[500910] O[500911] O[500912] O[500913] O[500914] O[500915] O[500916]
 O[500917] O[500918] O[500919] O[500920] O[500921] O[500922] O[500923]
 O[500924] O[500925] O[500926] O[500927] O[500928] O[500929] O[500930]
 O[500931] O[500932] O[500933] O[500934] O[500935] O[500936] O[500937]
 O[500938] O[500939] O[500940] O[500941] O[500942] O[500943] O[500944]
 O[500945] O[500946] O[500947] O[500948] O[500949] O[500950] O[500951]
 O[500952] O[500953] O[500954] O[500955] O[500956] O[500957] O[500958]
 O[500959] O[500960] O[500961] O[500962] O[500963] O[500964] O[500965]
 O[500966] O[500967] O[500968] O[500969] O[500970] O[500971] O[500972]
 O[500973] O[500974] O[500975] O[500976] O[500977] O[500978] O[500979]
 O[500980] O[500981] O[500982] O[500983] O[500984] O[500985] O[500986]
 O[500987] O[500988] O[500989] O[500990] O[500991] O[500992] O[500993]
 O[500994] O[500995] O[500996] O[500997] O[500998] O[500999] O[501000]
 O[501001] O[501002] O[501003] O[501004] O[501005] O[501006] O[501007]
 O[501008] O[501009] O[501010] O[501011] O[501012] O[501013] O[501014]
 O[501015] O[501016] O[501017] O[501018] O[501019] O[501020] O[501021]
 O[501022] O[501023] O[501024] O[501025] O[501026] O[501027] O[501028]
 O[501029] O[501030] O[501031] O[501032] O[501033] O[501034] O[501035]
 O[501036] O[501037] O[501038] O[501039] O[501040] O[501041] O[501042]
 O[501043] O[501044] O[501045] O[501046] O[501047] O[501048] O[501049]
 O[501050] O[501051] O[501052] O[501053] O[501054] O[501055] O[501056]
 O[501057] O[501058] O[501059] O[501060] O[501061] O[501062] O[501063]
 O[501064] O[501065] O[501066] O[501067] O[501068] O[501069] O[501070]
 O[501071] O[501072] O[501073] O[501074] O[501075] O[501076] O[501077]
 O[501078] O[501079] O[501080] O[501081] O[501082] O[501083] O[501084]
 O[501085] O[501086] O[501087] O[501088] O[501089] O[501090] O[501091]
 O[501092] O[501093] O[501094] O[501095] O[501096] O[501097] O[501098]
 O[501099] O[501100] O[501101] O[501102] O[501103] O[501104] O[501105]
 O[501106] O[501107] O[501108] O[501109] O[501110] O[501111] O[501112]
 O[501113] O[501114] O[501115] O[501116] O[501117] O[501118] O[501119]
 O[501120] O[501121] O[501122] O[501123] O[501124] O[501125] O[501126]
 O[501127] O[501128] O[501129] O[501130] O[501131] O[501132] O[501133]
 O[501134] O[501135] O[501136] O[501137] O[501138] O[501139] O[501140]
 O[501141] O[501142] O[501143] O[501144] O[501145] O[501146] O[501147]
 O[501148] O[501149] O[501150] O[501151] O[501152] O[501153] O[501154]
 O[501155] O[501156] O[501157] O[501158] O[501159] O[501160] O[501161]
 O[501162] O[501163] O[501164] O[501165] O[501166] O[501167] O[501168]
 O[501169] O[501170] O[501171] O[501172] O[501173] O[501174] O[501175]
 O[501176] O[501177] O[501178] O[501179] O[501180] O[501181] O[501182]
 O[501183] O[501184] O[501185] O[501186] O[501187] O[501188] O[501189]
 O[501190] O[501191] O[501192] O[501193] O[501194] O[501195] O[501196]
 O[501197] O[501198] O[501199] O[501200] O[501201] O[501202] O[501203]
 O[501204] O[501205] O[501206] O[501207] O[501208] O[501209] O[501210]
 O[501211] O[501212] O[501213] O[501214] O[501215] O[501216] O[501217]
 O[501218] O[501219] O[501220] O[501221] O[501222] O[501223] O[501224]
 O[501225] O[501226] O[501227] O[501228] O[501229] O[501230] O[501231]
 O[501232] O[501233] O[501234] O[501235] O[501236] O[501237] O[501238]
 O[501239] O[501240] O[501241] O[501242] O[501243] O[501244] O[501245]
 O[501246] O[501247] O[501248] O[501249] O[501250] O[501251] O[501252]
 O[501253] O[501254] O[501255] O[501256] O[501257] O[501258] O[501259]
 O[501260] O[501261] O[501262] O[501263] O[501264] O[501265] O[501266]
 O[501267] O[501268] O[501269] O[501270] O[501271] O[501272] O[501273]
 O[501274] O[501275] O[501276] O[501277] O[501278] O[501279] O[501280]
 O[501281] O[501282] O[501283] O[501284] O[501285] O[501286] O[501287]
 O[501288] O[501289] O[501290] O[501291] O[501292] O[501293] O[501294]
 O[501295] O[501296] O[501297] O[501298] O[501299] O[501300] O[501301]
 O[501302] O[501303] O[501304] O[501305] O[501306] O[501307] O[501308]
 O[501309] O[501310] O[501311] O[501312] O[501313] O[501314] O[501315]
 O[501316] O[501317] O[501318] O[501319] O[501320] O[501321] O[501322]
 O[501323] O[501324] O[501325] O[501326] O[501327] O[501328] O[501329]
 O[501330] O[501331] O[501332] O[501333] O[501334] O[501335] O[501336]
 O[501337] O[501338] O[501339] O[501340] O[501341] O[501342] O[501343]
 O[501344] O[501345] O[501346] O[501347] O[501348] O[501349] O[501350]
 O[501351] O[501352] O[501353] O[501354] O[501355] O[501356] O[501357]
 O[501358] O[501359] O[501360] O[501361] O[501362] O[501363] O[501364]
 O[501365] O[501366] O[501367] O[501368] O[501369] O[501370] O[501371]
 O[501372] O[501373] O[501374] O[501375] O[501376] O[501377] O[501378]
 O[501379] O[501380] O[501381] O[501382] O[501383] O[501384] O[501385]
 O[501386] O[501387] O[501388] O[501389] O[501390] O[501391] O[501392]
 O[501393] O[501394] O[501413] O[501414] O[501415] O[501416] O[501417]
 O[501418] O[501419] O[501420] O[501421] O[501422] O[501423] O[501424]
 O[501425] O[501426] O[501427] O[501428] O[501429] O[501430] O[501431]
 O[501432] O[501433] O[501434] O[501435] O[501436] O[501437] O[501438]
 O[501439] O[501440]
End
